98 98
6 38
1 17
11 12
54 31
10 17
22 4
39 20
33 14
60 45
91 25
3 5
80 29
9 26
13 39
63 45
35 33
15 25
14 2
70 30
41 42
12 32
86 8
31 13
83 19
5 16
96 22
50 34
64 27
89 36
92 37
30 28
24 39
37 24
73 8
44 4
88 10
55 24
61 42
94 31
40 32
67 3
65 9
46 44
81 34
19 9
23 46
62 23
82 3
4 30
79 20
38 40
69 48
75 26
97 29
49 1
43 15
32 41
18 43
17 15
68 38
76 6
66 49
36 12
29 19
78 5
85 48
72 7
98 33
34 35
2 47
25 6
28 14
48 16
90 22
74 35
42 37
45 47
95 11
56 49
87 18
16 41
53 21
26 40
47 28
93 11
84 43
20 27
71 1
8 44
52 23
27 36
21 46
59 21
57 10
77 13
51 7
58 2
7 18
